15 7 3 12 16 17 2 13 1 19 4 8 10 9 5 11 18 0 14 6  
15 7 12 3 17 16 10 2 1 19 4 8 5 9 13 11 18 0 14 6  
15 7 3 16 17 10 12 8 1 19 9 13 4 2 5 11 18 0 14 6  
15 7 3 17 16 12 8 10 1 19 4 2 5 13 9 11 18 0 14 6  
15 7 12 3 16 17 8 10 1 19 4 2 5 13 9 11 18 0 14 6  
15 7 17 3 12 16 10 2 1 19 4 8 5 9 13 11 18 0 14 6  
15 7 3 12 16 17 2 13 1 19 4 8 5 9 10 14 0 18 11 6  
15 7 12 3 16 17 8 10 1 19 4 2 5 13 9 11 18 0 14 6  
15 7 3 16 17 12 8 10 1 19 4 9 5 2 13 14 0 18 11 6  
15 7 3 12 16 17 2 13 1 19 4 8 10 9 5 11 18 0 14 6  
15 7 3 16 17 12 8 10 1 19 4 9 5 11 2 13 18 0 14 6  
15 7 3 12 16 2 17 13 1 19 4 9 5 8 10 14 0 18 11 6  
15 7 3 12 16 17 2 13 1 19 4 9 5 14 10 8 18 0 11 6  
15 7 3 12 16 2 17 10 1 19 4 8 5 9 13 11 18 0 14 6  
15 7 3 12 16 2 17 13 1 19 4 5 9 8 10 14 0 18 11 6  
15 7 3 16 17 12 8 10 1 19 4 2 5 13 9 14 18 0 11 6  
15 7 12 3 16 17 2 13 1 19 4 8 10 9 5 14 0 18 11 6  
15 7 3 16 17 12 8 10 1 19 4 2 9 5 13 11 18 0 14 6  
15 7 3 12 16 17 2 13 1 19 4 8 10 9 5 11 18 0 14 6  
15 7 3 17 16 12 8 10 1 19 4 2 5 13 9 11 18 0 14 6  
15 7 3 16 17 10 12 8 1 19 4 2 9 13 18 5 0 14 11 6  
15 7 3 16 17 12 8 10 1 19 4 2 5 13 9 11 18 0 14 6  
15 7 3 12 16 17 2 13 1 19 4 9 8 10 5 11 18 0 14 6  
15 7 3 16 17 0 12 8 1 19 4 2 13 9 5 10 14 18 11 6  
15 7 3 16 17 12 8 10 1 19 4 2 9 5 13 18 0 14 6 11  
15 7 3 16 17 12 8 10 1 19 4 2 5 13 9 14 18 0 11 6  
15 7 3 16 17 10 12 8 1 19 4 2 9 13 18 5 0 6 11 14  
15 7 3 16 17 12 8 10 1 19 4 2 13 9 5 11 18 0 14 6  
15 7 3 12 16 2 17 13 1 19 4 8 10 9 5 0 14 18 11 6  
15 7 3 16 9 12 2 13 1 19 4 8 10 17 5 11 18 0 14 6  
15 7 17 3 16 12 2 13 1 19 4 8 9 5 10 14 0 18 11 6  
15 7 17 3 16 12 2 13 1 19 4 8 9 5 10 14 0 18 11 6  
15 7 3 17 16 12 2 13 1 19 4 9 5 14 10 8 18 0 11 6  
15 7 3 16 17 10 12 8 1 19 9 13 4 2 5 11 18 0 14 6  
15 7 3 16 17 10 12 8 1 19 4 2 9 13 18 5 0 6 11 14  
15 7 17 16 3 12 8 10 1 19 4 2 5 13 9 14 18 0 11 6  
